// dados do problema de fluxo maximo (pequena instancia criada)


Nos = {
  "s",
  "v1",
  "v2",
  "v3",
  "v4",
  "t"
};

origem = "s";
destino = "t";

// cada arco tem: origem, destino e capacidade
Arcos = {
  <"s",  "v1", 5>,
  <"s",  "v2", 4>,
  <"v1", "v3", 6>,
  <"v1", "v2", 4>,
  <"v2", "v3", 3>,
  <"v2", "v4", 6>,
  <"v3", "t",  5>,
  <"v4", "t",  7>
};